NAME : cluster_netgen
COMMENT : cl=4
TYPE : TSP
DIMENSION : 50
EDGE_WEIGHT_TYPE : EUC_2D
NODE_COORD_SECTION
1 57839 228657
2 107345 304375
3 13609 174320
4 35037 237858
5 22854 274296
6 109025 222852
7 49464 230789
8 57234 129961
9 106410 146068
10 51477 293471
11 10098 192220
12 29817 185283
13 873324 451636
14 949078 347642
15 973289 411111
16 882024 295801
17 919948 387556
18 870648 354117
19 835127 286807
20 898783 269168
21 839486 260736
22 876572 441590
23 904766 352776
24 962144 268344
25 511020 871409
26 553892 920844
27 506633 817923
28 560163 860550
29 591685 899182
30 608212 848003
31 565062 774464
32 627765 895062
33 629713 905603
34 666601 891694
35 659523 883624
36 612356 875865
37 535960 790396
38 538825 825448
39 398974 616775
40 470866 656249
41 415582 651503
42 470230 713556
43 447340 698564
44 463275 707073
45 491455 694894
46 416942 742945
47 457150 746199
48 547967 662473
49 407367 637860
50 454582 652797

EOF
